c "989913.clq"
p edge 120 464
e 1 5
e 1 6
e 1 7
e 1 11
e 1 13
e 1 15
e 1 17
e 1 21
e 1 40
e 1 47
e 1 48
e 1 67
e 1 72
e 1 82
e 1 85
e 1 110
e 1 118
e 2 5
e 2 6
e 2 8
e 2 10
e 2 15
e 2 16
e 2 21
e 2 22
e 2 25
e 2 26
e 2 27
e 2 30
e 2 42
e 2 47
e 2 49
e 2 52
e 2 54
e 2 81
e 2 82
e 2 86
e 2 98
e 3 5
e 3 6
e 3 7
e 3 9
e 3 11
e 3 12
e 3 14
e 3 17
e 3 25
e 3 35
e 3 49
e 3 55
e 3 57
e 3 62
e 3 64
e 3 74
e 3 81
e 3 82
e 3 104
e 3 115
e 4 5
e 4 8
e 4 32
e 4 58
e 4 68
e 4 72
e 4 88
e 4 113
e 5 6
e 5 7
e 5 8
e 5 9
e 5 16
e 5 18
e 5 23
e 5 31
e 5 33
e 5 39
e 5 43
e 5 55
e 5 59
e 5 62
e 5 83
e 5 91
e 5 92
e 5 95
e 5 97
e 5 99
e 5 116
e 6 7
e 6 8
e 6 9
e 6 10
e 6 11
e 6 12
e 6 13
e 6 15
e 6 16
e 6 19
e 6 21
e 6 22
e 6 23
e 6 24
e 6 25
e 6 26
e 6 29
e 6 30
e 6 32
e 6 34
e 6 36
e 6 37
e 6 39
e 6 42
e 6 45
e 6 46
e 6 47
e 6 48
e 6 54
e 6 61
e 6 64
e 6 65
e 6 73
e 6 75
e 6 78
e 6 81
e 6 85
e 6 89
e 6 94
e 6 95
e 6 101
e 6 112
e 6 114
e 6 117
e 7 10
e 7 19
e 7 22
e 7 23
e 7 28
e 7 36
e 7 40
e 7 41
e 7 53
e 7 63
e 7 69
e 7 83
e 7 103
e 7 105
e 8 9
e 8 11
e 8 14
e 8 17
e 8 18
e 8 19
e 8 23
e 8 26
e 8 27
e 8 29
e 8 36
e 8 43
e 8 44
e 8 46
e 8 53
e 8 63
e 8 71
e 8 77
e 8 78
e 8 90
e 8 96
e 8 99
e 8 101
e 8 103
e 8 120
e 9 10
e 9 12
e 9 13
e 9 42
e 9 49
e 9 55
e 9 64
e 9 67
e 9 75
e 9 96
e 10 19
e 10 56
e 10 58
e 10 65
e 10 97
e 11 12
e 11 13
e 11 16
e 11 20
e 11 24
e 11 28
e 11 33
e 11 34
e 11 35
e 11 37
e 11 38
e 11 42
e 11 57
e 11 60
e 11 79
e 11 86
e 11 120
e 12 14
e 12 18
e 12 20
e 12 27
e 12 33
e 12 38
e 12 45
e 12 68
e 12 70
e 12 71
e 12 76
e 12 87
e 12 89
e 12 93
e 12 102
e 12 107
e 13 14
e 13 24
e 13 40
e 13 43
e 13 51
e 13 52
e 13 57
e 13 66
e 13 72
e 13 75
e 13 81
e 13 91
e 13 97
e 13 105
e 14 15
e 14 18
e 14 28
e 14 30
e 14 32
e 14 34
e 14 51
e 14 54
e 14 62
e 14 63
e 14 65
e 14 68
e 14 73
e 14 74
e 14 76
e 14 79
e 14 88
e 14 90
e 14 103
e 14 114
e 14 119
e 15 17
e 15 20
e 15 25
e 15 26
e 15 52
e 15 73
e 15 86
e 16 22
e 16 28
e 16 41
e 16 60
e 16 64
e 16 110
e 16 118
e 17 39
e 17 50
e 18 20
e 18 24
e 18 31
e 18 38
e 18 39
e 18 44
e 18 48
e 18 51
e 18 52
e 18 56
e 18 62
e 18 70
e 18 74
e 18 80
e 18 93
e 18 109
e 19 33
e 19 35
e 19 38
e 19 50
e 20 21
e 20 29
e 20 35
e 20 37
e 20 44
e 20 56
e 20 57
e 20 61
e 20 77
e 20 83
e 20 100
e 20 106
e 20 112
e 20 116
e 21 50
e 21 65
e 21 72
e 21 84
e 21 99
e 21 102
e 21 104
e 21 111
e 21 113
e 22 37
e 22 58
e 22 59
e 22 96
e 22 109
e 22 110
e 22 115
e 23 31
e 23 48
e 23 49
e 23 69
e 23 71
e 23 118
e 24 41
e 24 84
e 24 85
e 24 94
e 24 98
e 24 106
e 24 108
e 25 69
e 26 27
e 26 30
e 26 34
e 26 36
e 26 46
e 26 47
e 26 56
e 26 63
e 26 87
e 26 91
e 26 104
e 27 31
e 27 41
e 27 58
e 28 29
e 28 43
e 28 80
e 28 102
e 28 120
e 29 45
e 29 101
e 31 32
e 31 53
e 31 59
e 33 94
e 35 46
e 35 70
e 35 92
e 35 107
e 35 109
e 36 40
e 36 77
e 36 95
e 36 112
e 37 107
e 38 82
e 39 45
e 39 61
e 39 71
e 40 53
e 40 59
e 40 79
e 40 84
e 40 100
e 40 105
e 41 78
e 42 50
e 42 55
e 42 89
e 42 92
e 42 113
e 42 115
e 43 44
e 43 51
e 43 54
e 43 67
e 43 77
e 45 61
e 45 69
e 45 92
e 45 108
e 45 119
e 47 66
e 47 80
e 47 90
e 47 107
e 47 119
e 48 60
e 49 70
e 49 101
e 50 80
e 50 93
e 50 98
e 50 105
e 51 90
e 51 104
e 53 68
e 54 66
e 54 88
e 54 118
e 56 114
e 56 116
e 58 78
e 58 87
e 59 60
e 59 66
e 59 91
e 59 97
e 60 67
e 60 75
e 61 111
e 62 114
e 63 76
e 65 100
e 67 76
e 69 100
e 69 108
e 70 74
e 70 83
e 71 73
e 71 79
e 71 89
e 71 93
e 72 87
e 72 102
e 72 115
e 73 116
e 76 94
e 78 85
e 80 84
e 80 103
e 81 86
e 81 99
e 85 88
e 86 111
e 88 96
e 88 109
e 89 95
e 89 111
e 93 106
e 94 113
e 95 98
e 97 110
e 98 106
e 98 108
e 99 120
e 100 119
e 108 112
e 110 117
e 113 117
e 116 117
